p cnf 114 722
1 2 3 0
4 5 6 0
7 8 9 0
10 11 12 0
13 14 15 0
16 17 18 0
19 20 21 0
22 23 24 0
25 26 27 0
28 29 30 0
31 32 33 0
34 35 36 0
37 38 39 0
40 41 42 0
43 44 45 0
46 47 48 0
49 50 51 0
52 53 54 0
55 56 57 0
58 59 60 0
61 62 63 0
64 65 66 0
67 68 69 0
70 71 72 0
73 74 75 0
76 77 78 0
79 80 81 0
82 83 84 0
85 86 87 0
88 89 90 0
91 92 93 0
94 95 96 0
97 98 99 0
100 101 102 0
103 104 105 0
106 107 108 0
109 110 111 0
112 113 114 0
-1 -2 0
-1 -3 0
-2 -3 0
-4 -5 0
-4 -6 0
-5 -6 0
-7 -8 0
-7 -9 0
-8 -9 0
-10 -11 0
-10 -12 0
-11 -12 0
-13 -14 0
-13 -15 0
-14 -15 0
-16 -17 0
-16 -18 0
-17 -18 0
-19 -20 0
-19 -21 0
-20 -21 0
-22 -23 0
-22 -24 0
-23 -24 0
-25 -26 0
-25 -27 0
-26 -27 0
-28 -29 0
-28 -30 0
-29 -30 0
-31 -32 0
-31 -33 0
-32 -33 0
-34 -35 0
-34 -36 0
-35 -36 0
-37 -38 0
-37 -39 0
-38 -39 0
-40 -41 0
-40 -42 0
-41 -42 0
-43 -44 0
-43 -45 0
-44 -45 0
-46 -47 0
-46 -48 0
-47 -48 0
-49 -50 0
-49 -51 0
-50 -51 0
-52 -53 0
-52 -54 0
-53 -54 0
-55 -56 0
-55 -57 0
-56 -57 0
-58 -59 0
-58 -60 0
-59 -60 0
-61 -62 0
-61 -63 0
-62 -63 0
-64 -65 0
-64 -66 0
-65 -66 0
-67 -68 0
-67 -69 0
-68 -69 0
-70 -71 0
-70 -72 0
-71 -72 0
-73 -74 0
-73 -75 0
-74 -75 0
-76 -77 0
-76 -78 0
-77 -78 0
-79 -80 0
-79 -81 0
-80 -81 0
-82 -83 0
-82 -84 0
-83 -84 0
-85 -86 0
-85 -87 0
-86 -87 0
-88 -89 0
-88 -90 0
-89 -90 0
-91 -92 0
-91 -93 0
-92 -93 0
-94 -95 0
-94 -96 0
-95 -96 0
-97 -98 0
-97 -99 0
-98 -99 0
-100 -101 0
-100 -102 0
-101 -102 0
-103 -104 0
-103 -105 0
-104 -105 0
-106 -107 0
-106 -108 0
-107 -108 0
-109 -110 0
-109 -111 0
-110 -111 0
-112 -113 0
-112 -114 0
-113 -114 0
-1 -16 0
-2 -17 0
-3 -18 0
-1 -4 0
-2 -5 0
-3 -6 0
-1 -10 0
-2 -11 0
-3 -12 0
-1 -13 0
-2 -14 0
-3 -15 0
-1 -7 0
-2 -8 0
-3 -9 0
-4 -28 0
-5 -29 0
-6 -30 0
-4 -22 0
-5 -23 0
-6 -24 0
-4 -25 0
-5 -26 0
-6 -27 0
-4 -1 0
-5 -2 0
-6 -3 0
-4 -19 0
-5 -20 0
-6 -21 0
-7 -28 0
-8 -29 0
-9 -30 0
-7 -61 0
-8 -62 0
-9 -63 0
-7 -73 0
-8 -74 0
-9 -75 0
-7 -94 0
-8 -95 0
-9 -96 0
-7 -1 0
-8 -2 0
-9 -3 0
-10 -91 0
-11 -92 0
-12 -93 0
-10 -79 0
-11 -80 0
-12 -81 0
-10 -97 0
-11 -98 0
-12 -99 0
-10 -70 0
-11 -71 0
-12 -72 0
-10 -1 0
-11 -2 0
-12 -3 0
-13 -34 0
-14 -35 0
-15 -36 0
-13 -85 0
-14 -86 0
-15 -87 0
-13 -28 0
-14 -29 0
-15 -30 0
-13 -100 0
-14 -101 0
-15 -102 0
-13 -1 0
-14 -2 0
-15 -3 0
-16 -79 0
-17 -80 0
-18 -81 0
-16 -76 0
-17 -77 0
-18 -78 0
-16 -31 0
-17 -32 0
-18 -33 0
-16 -73 0
-17 -74 0
-18 -75 0
-16 -1 0
-17 -2 0
-18 -3 0
-19 -112 0
-20 -113 0
-21 -114 0
-19 -4 0
-20 -5 0
-21 -6 0
-19 -49 0
-20 -50 0
-21 -51 0
-19 -61 0
-20 -62 0
-21 -63 0
-19 -106 0
-20 -107 0
-21 -108 0
-22 -34 0
-23 -35 0
-24 -36 0
-22 -91 0
-23 -92 0
-24 -93 0
-22 -4 0
-23 -5 0
-24 -6 0
-22 -40 0
-23 -41 0
-24 -42 0
-22 -94 0
-23 -95 0
-24 -96 0
-25 -34 0
-26 -35 0
-27 -36 0
-25 -103 0
-26 -104 0
-27 -105 0
-25 -76 0
-26 -77 0
-27 -78 0
-25 -46 0
-26 -47 0
-27 -48 0
-25 -4 0
-26 -5 0
-27 -6 0
-28 -76 0
-29 -77 0
-30 -78 0
-28 -4 0
-29 -5 0
-30 -6 0
-28 -13 0
-29 -14 0
-30 -15 0
-28 -79 0
-29 -80 0
-30 -81 0
-28 -7 0
-29 -8 0
-30 -9 0
-31 -34 0
-32 -35 0
-33 -36 0
-31 -37 0
-32 -38 0
-33 -39 0
-31 -43 0
-32 -44 0
-33 -45 0
-31 -16 0
-32 -17 0
-33 -18 0
-31 -40 0
-32 -41 0
-33 -42 0
-34 -46 0
-35 -47 0
-36 -48 0
-34 -31 0
-35 -32 0
-36 -33 0
-34 -13 0
-35 -14 0
-36 -15 0
-34 -22 0
-35 -23 0
-36 -24 0
-34 -25 0
-35 -26 0
-36 -27 0
-37 -91 0
-38 -92 0
-39 -93 0
-37 -100 0
-38 -101 0
-39 -102 0
-37 -31 0
-38 -32 0
-39 -33 0
-37 -97 0
-38 -98 0
-39 -99 0
-37 -94 0
-38 -95 0
-39 -96 0
-40 -85 0
-41 -86 0
-42 -87 0
-40 -31 0
-41 -32 0
-42 -33 0
-40 -22 0
-41 -23 0
-42 -24 0
-40 -106 0
-41 -107 0
-42 -108 0
-40 -94 0
-41 -95 0
-42 -96 0
-43 -109 0
-44 -110 0
-45 -111 0
-43 -112 0
-44 -113 0
-45 -114 0
-43 -82 0
-44 -83 0
-45 -84 0
-43 -31 0
-44 -32 0
-45 -33 0
-43 -49 0
-44 -50 0
-45 -51 0
-46 -34 0
-47 -35 0
-48 -36 0
-46 -82 0
-47 -83 0
-48 -84 0
-46 -25 0
-47 -26 0
-48 -27 0
-46 -70 0
-47 -71 0
-48 -72 0
-46 -106 0
-47 -107 0
-48 -108 0
-49 -55 0
-50 -56 0
-51 -57 0
-49 -43 0
-50 -44 0
-51 -45 0
-49 -58 0
-50 -59 0
-51 -60 0
-49 -52 0
-50 -53 0
-51 -54 0
-49 -19 0
-50 -20 0
-51 -21 0
-52 -67 0
-53 -68 0
-54 -69 0
-52 -49 0
-53 -50 0
-54 -51 0
-52 -61 0
-53 -62 0
-54 -63 0
-52 -70 0
-53 -71 0
-54 -72 0
-52 -64 0
-53 -65 0
-54 -66 0
-55 -109 0
-56 -110 0
-57 -111 0
-55 -88 0
-56 -89 0
-57 -90 0
-55 -91 0
-56 -92 0
-57 -93 0
-55 -76 0
-56 -77 0
-57 -78 0
-55 -49 0
-56 -50 0
-57 -51 0
-58 -88 0
-59 -89 0
-60 -90 0
-58 -103 0
-59 -104 0
-60 -105 0
-58 -67 0
-59 -68 0
-60 -69 0
-58 -49 0
-59 -50 0
-60 -51 0
-58 -106 0
-59 -107 0
-60 -108 0
-61 -88 0
-62 -89 0
-63 -90 0
-61 -67 0
-62 -68 0
-63 -69 0
-61 -52 0
-62 -53 0
-63 -54 0
-61 -7 0
-62 -8 0
-63 -9 0
-61 -19 0
-62 -20 0
-63 -21 0
-64 -109 0
-65 -110 0
-66 -111 0
-64 -85 0
-65 -86 0
-66 -87 0
-64 -97 0
-65 -98 0
-66 -99 0
-64 -52 0
-65 -53 0
-66 -54 0
-64 -79 0
-65 -80 0
-66 -81 0
-67 -91 0
-68 -92 0
-69 -93 0
-67 -97 0
-68 -98 0
-69 -99 0
-67 -58 0
-68 -59 0
-69 -60 0
-67 -52 0
-68 -53 0
-69 -54 0
-67 -61 0
-68 -62 0
-69 -63 0
-70 -103 0
-71 -104 0
-72 -105 0
-70 -46 0
-71 -47 0
-72 -48 0
-70 -52 0
-71 -53 0
-72 -54 0
-70 -10 0
-71 -11 0
-72 -12 0
-70 -73 0
-71 -74 0
-72 -75 0
-73 -85 0
-74 -86 0
-75 -87 0
-73 -82 0
-74 -83 0
-75 -84 0
-73 -16 0
-74 -17 0
-75 -18 0
-73 -70 0
-74 -71 0
-75 -72 0
-73 -7 0
-74 -8 0
-75 -9 0
-76 -28 0
-77 -29 0
-78 -30 0
-76 -55 0
-77 -56 0
-78 -57 0
-76 -16 0
-77 -17 0
-78 -18 0
-76 -25 0
-77 -26 0
-78 -27 0
-76 -94 0
-77 -95 0
-78 -96 0
-79 -112 0
-80 -113 0
-81 -114 0
-79 -28 0
-80 -29 0
-81 -30 0
-79 -16 0
-80 -17 0
-81 -18 0
-79 -10 0
-80 -11 0
-81 -12 0
-79 -64 0
-80 -65 0
-81 -66 0
-82 -109 0
-83 -110 0
-84 -111 0
-82 -112 0
-83 -113 0
-84 -114 0
-82 -43 0
-83 -44 0
-84 -45 0
-82 -46 0
-83 -47 0
-84 -48 0
-82 -73 0
-83 -74 0
-84 -75 0
-85 -88 0
-86 -89 0
-87 -90 0
-85 -40 0
-86 -41 0
-87 -42 0
-85 -13 0
-86 -14 0
-87 -15 0
-85 -73 0
-86 -74 0
-87 -75 0
-85 -64 0
-86 -65 0
-87 -66 0
-88 -85 0
-89 -86 0
-90 -87 0
-88 -55 0
-89 -56 0
-90 -57 0
-88 -58 0
-89 -59 0
-90 -60 0
-88 -61 0
-89 -62 0
-90 -63 0
-88 -106 0
-89 -107 0
-90 -108 0
-91 -37 0
-92 -38 0
-93 -39 0
-91 -67 0
-92 -68 0
-93 -69 0
-91 -55 0
-92 -56 0
-93 -57 0
-91 -10 0
-92 -11 0
-93 -12 0
-91 -22 0
-92 -23 0
-93 -24 0
-94 -37 0
-95 -38 0
-96 -39 0
-94 -76 0
-95 -77 0
-96 -78 0
-94 -40 0
-95 -41 0
-96 -42 0
-94 -22 0
-95 -23 0
-96 -24 0
-94 -7 0
-95 -8 0
-96 -9 0
-97 -37 0
-98 -38 0
-99 -39 0
-97 -103 0
-98 -104 0
-99 -105 0
-97 -67 0
-98 -68 0
-99 -69 0
-97 -10 0
-98 -11 0
-99 -12 0
-97 -64 0
-98 -65 0
-99 -66 0
-100 -109 0
-101 -110 0
-102 -111 0
-100 -37 0
-101 -38 0
-102 -39 0
-100 -112 0
-101 -113 0
-102 -114 0
-100 -103 0
-101 -104 0
-102 -105 0
-100 -13 0
-101 -14 0
-102 -15 0
-103 -100 0
-104 -101 0
-105 -102 0
-103 -97 0
-104 -98 0
-105 -99 0
-103 -58 0
-104 -59 0
-105 -60 0
-103 -25 0
-104 -26 0
-105 -27 0
-103 -70 0
-104 -71 0
-105 -72 0
-106 -88 0
-107 -89 0
-108 -90 0
-106 -46 0
-107 -47 0
-108 -48 0
-106 -58 0
-107 -59 0
-108 -60 0
-106 -40 0
-107 -41 0
-108 -42 0
-106 -19 0
-107 -20 0
-108 -21 0
-109 -82 0
-110 -83 0
-111 -84 0
-109 -100 0
-110 -101 0
-111 -102 0
-109 -55 0
-110 -56 0
-111 -57 0
-109 -43 0
-110 -44 0
-111 -45 0
-109 -64 0
-110 -65 0
-111 -66 0
-112 -82 0
-113 -83 0
-114 -84 0
-112 -100 0
-113 -101 0
-114 -102 0
-112 -43 0
-113 -44 0
-114 -45 0
-112 -79 0
-113 -80 0
-114 -81 0
-112 -19 0
-113 -20 0
-114 -21 0
